param set_len = 16;
param target := 2643836154;
set values := 212589909, 345638839, 370679436, 473599000, 83124547, 406911495, 185444337, 246795246, 484717783, 410348058, 500354919, 120266978, 388173292, 396498398, 22555515, 257670269, ;
